<instance format="XCSP3" type="CSP">
  <variables>
    <array id="x" note="x is the first Latin square" size="[8][8]"> 0..7 </array>
    <array id="y" note="y is the second Latin square" size="[8][8]"> 0..7 </array>
    <array id="z" note="z is the matrix used to control orthogonality" size="[64]"> 0..63 </array>
  </variables>
  <constraints>
    <group note="ensuring that x is a Latin square">
      <allDifferent> %... </allDifferent>
      <args> x[0][] </args>
      <args> x[1][] </args>
      <args> x[2][] </args>
      <args> x[3][] </args>
      <args> x[4][] </args>
      <args> x[5][] </args>
      <args> x[6][] </args>
      <args> x[7][] </args>
      <args> x[][0] </args>
      <args> x[][1] </args>
      <args> x[][2] </args>
      <args> x[][3] </args>
      <args> x[][4] </args>
      <args> x[][5] </args>
      <args> x[][6] </args>
      <args> x[][7] </args>
    </group>
    <group note="ensuring that y is a Latin square">
      <allDifferent> %... </allDifferent>
      <args> y[0][] </args>
      <args> y[1][] </args>
      <args> y[2][] </args>
      <args> y[3][] </args>
      <args> y[4][] </args>
      <args> y[5][] </args>
      <args> y[6][] </args>
      <args> y[7][] </args>
      <args> y[][0] </args>
      <args> y[][1] </args>
      <args> y[][2] </args>
      <args> y[][3] </args>
      <args> y[][4] </args>
      <args> y[][5] </args>
      <args> y[][6] </args>
      <args> y[][7] </args>
    </group>
    <group class="diagonals" note="ensuring that values on diagonals are different">
      <allDifferent> %... </allDifferent>
      <args> x[0][0] x[1][1] x[2][2] x[3][3] x[4][4] x[5][5] x[6][6] x[7][7] </args>
      <args> x[0][7] x[1][6] x[2][5] x[3][4] x[4][3] x[5][2] x[6][1] x[7][0] </args>
      <args> y[0][0] y[1][1] y[2][2] y[3][3] y[4][4] y[5][5] y[6][6] y[7][7] </args>
      <args> y[0][7] y[1][6] y[2][5] y[3][4] y[4][3] y[5][2] y[6][1] y[7][0] </args>
    </group>
    <allDifferent note="ensuring orthogonality of x and y through z"> z[] </allDifferent>
    <group note="computing z from x and y">
      <extension>
        <list> %0 %1 %2 </list>
        <supports> (0,0,0)(0,1,1)(0,2,2)(0,3,3)(0,4,4)(0,5,5)(0,6,6)(0,7,7)(1,0,8)(1,1,9)(1,2,10)(1,3,11)(1,4,12)(1,5,13)(1,6,14)(1,7,15)(2,0,16)(2,1,17)(2,2,18)(2,3,19)(2,4,20)(2,5,21)(2,6,22)(2,7,23)(3,0,24)(3,1,25)(3,2,26)(3,3,27)(3,4,28)(3,5,29)(3,6,30)(3,7,31)(4,0,32)(4,1,33)(4,2,34)(4,3,35)(4,4,36)(4,5,37)(4,6,38)(4,7,39)(5,0,40)(5,1,41)(5,2,42)(5,3,43)(5,4,44)(5,5,45)(5,6,46)(5,7,47)(6,0,48)(6,1,49)(6,2,50)(6,3,51)(6,4,52)(6,5,53)(6,6,54)(6,7,55)(7,0,56)(7,1,57)(7,2,58)(7,3,59)(7,4,60)(7,5,61)(7,6,62)(7,7,63) </supports>
      </extension>
      <args> x[0][0] y[0][0] z[0] </args>
      <args> x[0][1] y[0][1] z[1] </args>
      <args> x[0][2] y[0][2] z[2] </args>
      <args> x[0][3] y[0][3] z[3] </args>
      <args> x[0][4] y[0][4] z[4] </args>
      <args> x[0][5] y[0][5] z[5] </args>
      <args> x[0][6] y[0][6] z[6] </args>
      <args> x[0][7] y[0][7] z[7] </args>
      <args> x[1][0] y[1][0] z[8] </args>
      <args> x[1][1] y[1][1] z[9] </args>
      <args> x[1][2] y[1][2] z[10] </args>
      <args> x[1][3] y[1][3] z[11] </args>
      <args> x[1][4] y[1][4] z[12] </args>
      <args> x[1][5] y[1][5] z[13] </args>
      <args> x[1][6] y[1][6] z[14] </args>
      <args> x[1][7] y[1][7] z[15] </args>
      <args> x[2][0] y[2][0] z[16] </args>
      <args> x[2][1] y[2][1] z[17] </args>
      <args> x[2][2] y[2][2] z[18] </args>
      <args> x[2][3] y[2][3] z[19] </args>
      <args> x[2][4] y[2][4] z[20] </args>
      <args> x[2][5] y[2][5] z[21] </args>
      <args> x[2][6] y[2][6] z[22] </args>
      <args> x[2][7] y[2][7] z[23] </args>
      <args> x[3][0] y[3][0] z[24] </args>
      <args> x[3][1] y[3][1] z[25] </args>
      <args> x[3][2] y[3][2] z[26] </args>
      <args> x[3][3] y[3][3] z[27] </args>
      <args> x[3][4] y[3][4] z[28] </args>
      <args> x[3][5] y[3][5] z[29] </args>
      <args> x[3][6] y[3][6] z[30] </args>
      <args> x[3][7] y[3][7] z[31] </args>
      <args> x[4][0] y[4][0] z[32] </args>
      <args> x[4][1] y[4][1] z[33] </args>
      <args> x[4][2] y[4][2] z[34] </args>
      <args> x[4][3] y[4][3] z[35] </args>
      <args> x[4][4] y[4][4] z[36] </args>
      <args> x[4][5] y[4][5] z[37] </args>
      <args> x[4][6] y[4][6] z[38] </args>
      <args> x[4][7] y[4][7] z[39] </args>
      <args> x[5][0] y[5][0] z[40] </args>
      <args> x[5][1] y[5][1] z[41] </args>
      <args> x[5][2] y[5][2] z[42] </args>
      <args> x[5][3] y[5][3] z[43] </args>
      <args> x[5][4] y[5][4] z[44] </args>
      <args> x[5][5] y[5][5] z[45] </args>
      <args> x[5][6] y[5][6] z[46] </args>
      <args> x[5][7] y[5][7] z[47] </args>
      <args> x[6][0] y[6][0] z[48] </args>
      <args> x[6][1] y[6][1] z[49] </args>
      <args> x[6][2] y[6][2] z[50] </args>
      <args> x[6][3] y[6][3] z[51] </args>
      <args> x[6][4] y[6][4] z[52] </args>
      <args> x[6][5] y[6][5] z[53] </args>
      <args> x[6][6] y[6][6] z[54] </args>
      <args> x[6][7] y[6][7] z[55] </args>
      <args> x[7][0] y[7][0] z[56] </args>
      <args> x[7][1] y[7][1] z[57] </args>
      <args> x[7][2] y[7][2] z[58] </args>
      <args> x[7][3] y[7][3] z[59] </args>
      <args> x[7][4] y[7][4] z[60] </args>
      <args> x[7][5] y[7][5] z[61] </args>
      <args> x[7][6] y[7][6] z[62] </args>
      <args> x[7][7] y[7][7] z[63] </args>
    </group>
    <group class="symmetry-breaking">
      <intension> eq(%0,%1) </intension>
      <args> x[0][0] 0 </args>
      <args> x[0][1] 1 </args>
      <args> x[0][2] 2 </args>
      <args> x[0][3] 3 </args>
      <args> x[0][4] 4 </args>
      <args> x[0][5] 5 </args>
      <args> x[0][6] 6 </args>
      <args> x[0][7] 7 </args>
      <args> y[0][0] 0 </args>
      <args> y[0][1] 1 </args>
      <args> y[0][2] 2 </args>
      <args> y[0][3] 3 </args>
      <args> y[0][4] 4 </args>
      <args> y[0][5] 5 </args>
      <args> y[0][6] 6 </args>
      <args> y[0][7] 7 </args>
    </group>
  </constraints>
</instance>
